0 3248
1 3102
2 3068
3 2965
4 2810
5 2810
6 2736
7 2647
8 2647
9 2635
10 2564
11 2523
12 2475
13 2475
14 2282
15 2282
16 2271
17 2271
18 2271
19 2271
20 2271
21 2259
22 2222
23 2222
24 2222
25 2222
26 2222
27 2202
28 2202
29 2202
30 2202
31 2202
32 2202
33 2202
34 2202
35 2202
36 2175
37 2175
38 2171
39 2171
40 2171
41 2171
42 2165
43 2149
44 2149
45 2149
46 2149
47 2149
48 2149
49 2147
50 2147
51 2147
52 2147
53 2147
54 2147
55 2143
56 2143
57 2143
58 2134
59 2134
60 2134
61 2134
62 2134
63 2134
64 2134
65 2134
66 2134
67 2134
68 2133
69 2133
70 2133
71 2126
72 2112
73 2100
74 2100
75 2100
76 2100
77 2100
78 2100
79 2100
80 2092
81 2092
82 2092
83 2087
84 2087
85 2087
86 2047
87 2032
88 2032
89 2032
90 2032
91 2032
92 2022
93 2022
94 2022
95 2003
96 2003
97 2003
98 2003
99 2003
100 2003
101 2003
102 2003
103 2003
104 2003
105 1988
106 1988
107 1988
108 1988
109 1988
110 1988
111 1988
112 1988
113 1988
114 1972
115 1972
116 1972
117 1967
118 1967
119 1967
120 1967
121 1967
122 1967
123 1967
124 1967
125 1967
126 1967
127 1967
128 1967
129 1967
130 1967
131 1967
132 1967
133 1967
134 1967
135 1967
136 1959
137 1959
138 1959
139 1959
140 1959
141 1959
142 1959
143 1959
144 1959
145 1959
146 1955
147 1955
148 1955
149 1954
150 1954
151 1954
152 1954
153 1954
154 1954
155 1944
156 1944
157 1944
158 1930
159 1930
160 1930
161 1930
162 1930
163 1917
164 1917
165 1898
166 1898
167 1893
168 1893
169 1893
170 1893
171 1893
172 1893
173 1893
174 1893
175 1893
176 1885
177 1882
178 1882
179 1882
180 1878
181 1868
182 1868
183 1868
184 1868
185 1868
186 1866
187 1866
188 1866
189 1866
190 1866
191 1866
192 1863
193 1863
194 1863
195 1863
196 1863
197 1863
198 1859
199 1859
200 1859
201 1859
202 1859
203 1859
204 1859
205 1859
206 1858
207 1858
208 1858
209 1858
210 1858
211 1858
212 1858
213 1858
214 1858
215 1858
216 1858
217 1856
218 1849
219 1849
220 1849
221 1849
222 1849
223 1849
224 1849
225 1849
226 1849
227 1849
228 1849
229 1849
230 1849
231 1849
232 1849
233 1849
234 1849
235 1849
236 1849
237 1849
238 1849
239 1849
240 1849
241 1849
242 1849
243 1849
244 1849
245 1849
246 1846
247 1845
248 1845
249 1845
250 1845
251 1845
252 1845
253 1845
254 1845
255 1845
256 1845
257 1845
258 1845
259 1845
260 1845
261 1845
262 1845
263 1845
264 1845
265 1841
266 1841
267 1841
268 1841
269 1841
270 1841
271 1836
272 1835
273 1835
274 1835
275 1835
276 1835
277 1835
278 1835
279 1835
280 1835
281 1835
282 1835
283 1835
284 1835
285 1835
286 1835
287 1835
288 1835
289 1835
290 1835
291 1835
292 1835
293 1835
294 1835
295 1835
296 1835
297 1835
298 1835
299 1835
300 1835
301 1835
302 1835
303 1835
304 1835
305 1835
306 1835
307 1835
308 1835
309 1835
310 1835
311 1835
312 1835
313 1835
314 1835
315 1835
316 1835
317 1835
318 1835
319 1835
320 1835
321 1835
322 1835
323 1835
324 1835
325 1835
326 1835
327 1835
328 1835
329 1835
330 1835
331 1835
332 1835
333 1835
334 1835
335 1835
336 1835
337 1835
338 1835
339 1835
340 1835
341 1835
342 1835
343 1835
344 1835
345 1835
346 1835
347 1832
348 1832
349 1832
350 1832
351 1832
352 1832
353 1832
354 1832
355 1832
356 1832
357 1832
358 1832
359 1832
360 1832
361 1832
362 1832
363 1832
364 1832
365 1832
366 1832
367 1832
368 1832
369 1832
370 1832
371 1832
372 1832
373 1832
374 1832
375 1832
376 1832
377 1832
378 1832
379 1832
380 1831
381 1831
382 1831
383 1831
384 1831
385 1831
386 1831
387 1831
388 1831
389 1831
390 1831
391 1831
392 1831
393 1831
394 1831
395 1831
396 1831
397 1831
398 1831
399 1831
400 1831
401 1831
402 1831
403 1831
404 1831
405 1831
406 1831
407 1831
408 1831
409 1831
410 1831
411 1831
412 1831
413 1831
414 1831
415 1831
416 1831
417 1829
418 1829
419 1829
420 1829
421 1829
422 1829
423 1829
424 1829
425 1829
426 1829
427 1829
428 1829
429 1829
430 1829
431 1829
432 1829
433 1829
434 1829
435 1829
436 1829
437 1829
438 1829
439 1829
440 1829
441 1829
442 1829
443 1829
444 1829
445 1829
446 1829
447 1829
448 1829
449 1829
450 1829
451 1829
452 1829
453 1829
454 1829
455 1829
456 1829
457 1829
458 1829
459 1829
460 1829
461 1829
462 1829
463 1829
464 1829
465 1829
466 1829
467 1829
468 1829
469 1829
470 1829
471 1829
472 1829
473 1829
474 1829
475 1829
476 1829
477 1829
478 1829
479 1829
480 1829
481 1829
482 1829
483 1829
484 1829
485 1829
486 1829
487 1829
488 1829
489 1829
490 1829
491 1829
492 1829
493 1829
494 1829
495 1829
496 1829
497 1829
498 1829
499 1829
500 1829
501 1829
502 1829
503 1829
504 1829
505 1829
506 1829
507 1829
508 1829
509 1829
510 1829
511 1829
512 1829
513 1829
514 1829
515 1829
516 1829
517 1829
518 1829
519 1829
520 1829
521 1829
522 1829
523 1829
524 1829
525 1829
526 1829
527 1829
528 1829
529 1829
530 1829
531 1829
532 1829
533 1829
534 1829
535 1829
536 1829
537 1829
538 1829
539 1829
540 1829
541 1829
542 1829
543 1829
544 1829
545 1829
546 1829
547 1829
548 1829
549 1829
550 1829
551 1829
552 1829
553 1829
554 1829
555 1829
556 1829
557 1829
558 1829
559 1829
560 1829
561 1829
562 1829
563 1829
564 1829
565 1829
566 1829
567 1829
568 1829
569 1829
570 1829
571 1829
572 1829
573 1829
574 1829
575 1829
576 1829
577 1829
578 1829
579 1829
580 1829
581 1829
582 1829
583 1829
584 1829
585 1829
586 1829
587 1829
588 1829
589 1829
590 1829
591 1829
592 1829
593 1829
594 1829
595 1829
596 1829
597 1829
598 1829
599 1829
600 1829
601 1829
602 1829
603 1829
604 1829
605 1829
606 1829
607 1829
608 1829
609 1829
610 1829
611 1829
612 1829
613 1829
614 1829
615 1829
616 1829
617 1829
618 1829
619 1829
620 1829
621 1829
622 1829
623 1829
624 1829
625 1829
626 1829
627 1829
628 1829
629 1829
630 1829
631 1829
632 1829
633 1829
634 1829
635 1829
636 1829
637 1829
638 1829
639 1829
640 1829
641 1829
642 1829
643 1829
644 1829
645 1829
646 1829
647 1829
648 1829
649 1829
650 1829
651 1829
652 1829
653 1829
654 1829
655 1829
656 1829
657 1829
658 1829
659 1829
660 1829
661 1829
662 1829
663 1829
664 1829
665 1829
666 1829
667 1829
668 1829
669 1829
670 1829
671 1829
672 1829
673 1829
674 1829
675 1829
676 1829
677 1829
678 1829
679 1829
680 1829
681 1829
682 1829
683 1829
684 1829
685 1829
686 1829
687 1829
688 1829
689 1829
690 1829
691 1829
692 1829
693 1829
694 1829
695 1829
696 1829
697 1829
698 1829
699 1829
700 1829
701 1829
702 1829
703 1829
704 1829
705 1829
706 1829
707 1829
708 1829
709 1829
710 1829
711 1829
712 1829
713 1829
714 1829
715 1829
716 1829
717 1829
718 1829
719 1829
720 1829
721 1829
722 1829
723 1829
724 1829
725 1829
726 1829
727 1829
728 1829
729 1829
730 1829
731 1829
732 1829
733 1829
734 1829
735 1829
736 1829
737 1829
738 1829
739 1829
740 1829
741 1829
742 1829
743 1829
744 1829
745 1829
746 1829
747 1829
748 1829
749 1829
750 1829
751 1829
752 1829
753 1829
754 1829
755 1829
756 1829
757 1829
758 1829
759 1829
760 1829
761 1829
762 1829
763 1829
764 1829
765 1829
766 1829
767 1829
768 1829
769 1829
770 1829
771 1829
772 1829
773 1829
774 1829
775 1829
776 1829
777 1829
778 1825
779 1825
780 1825
781 1825
782 1825
783 1825
784 1825
785 1825
786 1825
787 1825
788 1825
789 1825
790 1825
791 1825
792 1825
793 1820
794 1820
795 1820
796 1820
797 1820
798 1820
799 1820
800 1820
801 1820
802 1820
803 1820
804 1820
805 1820
806 1820
807 1820
808 1820
809 1820
810 1819
811 1819
812 1819
813 1819
814 1819
815 1819
816 1819
817 1819
818 1819
819 1819
820 1819
821 1819
822 1819
823 1819
824 1819
825 1819
826 1819
827 1819
828 1819
829 1819
830 1819
831 1819
832 1819
833 1819
834 1819
835 1819
836 1819
837 1819
838 1819
839 1819
840 1819
841 1819
842 1819
843 1819
844 1819
845 1819
846 1819
847 1819
848 1819
849 1819
850 1819
851 1819
852 1819
853 1819
854 1819
855 1819
856 1819
857 1819
858 1819
859 1819
860 1819
861 1819
862 1819
863 1819
864 1819
865 1819
866 1819
867 1819
868 1819
869 1819
870 1819
871 1819
872 1819
873 1819
874 1819
875 1819
876 1819
877 1819
878 1819
879 1818
880 1818
881 1818
882 1818
883 1818
884 1818
885 1818
886 1818
887 1818
888 1818
889 1818
890 1818
891 1818
892 1818
893 1818
894 1818
895 1818
896 1818
897 1818
898 1818
899 1818
900 1818
901 1818
902 1818
903 1811
904 1811
905 1811
906 1811
907 1811
908 1811
909 1811
910 1811
911 1811
912 1811
913 1804
914 1804
915 1804
916 1803
917 1803
918 1803
919 1803
920 1803
921 1803
922 1803
923 1803
924 1803
925 1803
926 1803
927 1799
928 1799
929 1799
930 1799
931 1799
932 1799
933 1799
934 1799
935 1799
936 1799
937 1799
938 1799
939 1799
940 1799
941 1799
942 1798
943 1798
944 1798
945 1798
946 1798
947 1798
948 1798
949 1798
950 1798
951 1798
952 1798
953 1798
954 1798
955 1798
956 1798
957 1798
958 1798
959 1798
960 1798
961 1798
962 1798
963 1798
964 1798
965 1798
966 1798
967 1798
968 1798
969 1798
970 1798
971 1798
972 1798
973 1798
974 1798
975 1798
976 1796
977 1796
978 1796
979 1796
980 1796
981 1796
982 1796
983 1796
984 1796
985 1796
986 1796
987 1796
988 1796
989 1796
990 1796
991 1796
992 1796
993 1796
994 1796
995 1796
996 1796
997 1796
998 1796
999 1796
Best: [[7,21,6,2,32,20,22,24,23,13],
       [5,14,31,12,11,27,19],
       [28,33,16,4,9,15],
       [17,8,18,34,3,29,10,35],
       [37,30,25,36,26]], fitness: 1796
